

(assert (forall ((_for_it_91 Int) (kfdia Int) (kidia Int) (klev Int) (klon Int) (ncldtop Int))
  (=>
    (and
      (<= kidia (+ kfdia (- 1)))
      (not (or (exists ((_for_it_93_0 Int)(_for_it_92_0 Int)(_for_it_92_1 Int)(_for_it_93_1 Int)) (and (= (+ _for_it_92_0 1) (+ _for_it_91 1)) (<= (+ kidia (- 1)) _for_it_93_0) (<= _for_it_93_0 (+ kfdia (- 1))) (= _for_it_93_0 _for_it_93_1) (= _for_it_92_0 _for_it_92_1) (= _for_it_91 (+ _for_it_91 1)) (<= _for_it_93_1 (+ kfdia (- 1))) (<= 0 _for_it_92_0) (<= _for_it_92_0 4) (= (+ _for_it_92_1 1) (+ _for_it_91 2)) (<= 0 _for_it_92_1) (<= _for_it_92_1 4) (<= (+ kidia (- 1)) _for_it_93_1))) (exists ((_for_it_94_1 Int)(_for_it_92_0 Int)(_for_it_93_0 Int)(_for_it_92_1 Int)(_for_it_93_1 Int)) (and (= (+ _for_it_92_0 1) (+ _for_it_91 1)) (<= (+ kidia (- 1)) _for_it_93_0) (<= _for_it_93_0 (+ kfdia (- 1))) (= _for_it_93_0 _for_it_93_1) (= _for_it_92_0 _for_it_92_1) (= _for_it_91 (+ _for_it_91 1)) (<= _for_it_93_1 (+ kfdia (- 1))) (<= 0 _for_it_94_1) (<= 0 _for_it_92_0) (<= _for_it_92_0 4) (<= _for_it_94_1 4) (= (+ _for_it_92_1 1) (+ _for_it_91 2)) (<= 0 _for_it_92_1) (<= _for_it_92_1 4) (<= (+ kidia (- 1)) _for_it_93_1))) (exists ((_for_it_92_0 Int)(_for_it_92_1 Int)(_for_it_95_1 Int)(_for_it_93_0 Int)) (and (= (+ _for_it_92_0 1) (+ _for_it_91 1)) (<= (+ kidia (- 1)) _for_it_93_0) (<= _for_it_93_0 (+ kfdia (- 1))) (= _for_it_92_0 _for_it_92_1) (= _for_it_91 (+ _for_it_91 1)) (<= 0 _for_it_92_0) (<= _for_it_92_0 4) (<= _for_it_95_1 (+ kfdia (- 1))) (<= (+ kidia (- 1)) _for_it_95_1) (not (= (+ _for_it_92_1 1) (+ _for_it_91 2))) (<= 0 _for_it_92_1) (<= _for_it_92_1 4) (= _for_it_93_0 _for_it_95_1))) (exists ((_for_it_94_0 Int)(_for_it_92_0 Int)(_for_it_93_0 Int)(_for_it_92_1 Int)(_for_it_93_1 Int)) (and (<= 0 _for_it_94_0) (<= _for_it_94_0 4) (= (+ _for_it_92_0 1) (+ _for_it_91 1)) (<= (+ kidia (- 1)) _for_it_93_0) (<= _for_it_93_0 (+ kfdia (- 1))) (= _for_it_93_0 _for_it_93_1) (= _for_it_92_0 _for_it_92_1) (= _for_it_91 (+ _for_it_91 1)) (<= _for_it_93_1 (+ kfdia (- 1))) (<= 0 _for_it_92_0) (<= _for_it_92_0 4) (= (+ _for_it_92_1 1) (+ _for_it_91 2)) (<= 0 _for_it_92_1) (<= _for_it_92_1 4) (<= (+ kidia (- 1)) _for_it_93_1))) (exists ((_for_it_94_0 Int)(_for_it_92_0 Int)(_for_it_94_1 Int)(_for_it_93_0 Int)(_for_it_92_1 Int)(_for_it_93_1 Int)) (and (<= 0 _for_it_94_0) (<= _for_it_94_0 4) (= (+ _for_it_92_0 1) (+ _for_it_91 1)) (<= (+ kidia (- 1)) _for_it_93_0) (<= _for_it_93_0 (+ kfdia (- 1))) (= _for_it_93_0 _for_it_93_1) (= _for_it_92_0 _for_it_92_1) (= _for_it_91 (+ _for_it_91 1)) (<= _for_it_93_1 (+ kfdia (- 1))) (<= 0 _for_it_94_1) (<= 0 _for_it_92_0) (<= _for_it_92_0 4) (<= _for_it_94_1 4) (= (+ _for_it_92_1 1) (+ _for_it_91 2)) (<= 0 _for_it_92_1) (<= _for_it_92_1 4) (<= (+ kidia (- 1)) _for_it_93_1))) (exists ((_for_it_94_0 Int)(_for_it_92_0 Int)(_for_it_95_1 Int)(_for_it_93_0 Int)(_for_it_92_1 Int)) (and (<= 0 _for_it_94_0) (<= _for_it_94_0 4) (= (+ _for_it_92_0 1) (+ _for_it_91 1)) (<= (+ kidia (- 1)) _for_it_93_0) (<= _for_it_93_0 (+ kfdia (- 1))) (= _for_it_92_0 _for_it_92_1) (= _for_it_91 (+ _for_it_91 1)) (<= 0 _for_it_92_0) (<= _for_it_92_0 4) (<= _for_it_95_1 (+ kfdia (- 1))) (<= (+ kidia (- 1)) _for_it_95_1) (not (= (+ _for_it_92_1 1) (+ _for_it_91 2))) (<= 0 _for_it_92_1) (<= _for_it_92_1 4) (= _for_it_93_0 _for_it_95_1))) (exists ((_for_it_92_0 Int)(_for_it_92_1 Int)(_for_it_95_0 Int)(_for_it_93_1 Int)) (and (not (= (+ _for_it_92_0 1) (+ _for_it_91 1))) (= _for_it_95_0 _for_it_93_1) (<= _for_it_93_1 (+ kfdia (- 1))) (<= _for_it_95_0 (+ kfdia (- 1))) (<= (+ kidia (- 1)) _for_it_95_0) (= _for_it_92_0 _for_it_92_1) (= _for_it_91 (+ _for_it_91 1)) (<= 0 _for_it_92_0) (<= _for_it_92_0 4) (= (+ _for_it_92_1 1) (+ _for_it_91 2)) (<= 0 _for_it_92_1) (<= _for_it_92_1 4) (<= (+ kidia (- 1)) _for_it_93_1))) (exists ((_for_it_95_0 Int)(_for_it_92_0 Int)(_for_it_94_1 Int)(_for_it_92_1 Int)(_for_it_93_1 Int)) (and (not (= (+ _for_it_92_0 1) (+ _for_it_91 1))) (= _for_it_95_0 _for_it_93_1) (<= _for_it_93_1 (+ kfdia (- 1))) (<= _for_it_95_0 (+ kfdia (- 1))) (<= (+ kidia (- 1)) _for_it_95_0) (= _for_it_92_0 _for_it_92_1) (= _for_it_91 (+ _for_it_91 1)) (<= 0 _for_it_94_1) (<= 0 _for_it_92_0) (<= _for_it_92_0 4) (<= _for_it_94_1 4) (= (+ _for_it_92_1 1) (+ _for_it_91 2)) (<= 0 _for_it_92_1) (<= _for_it_92_1 4) (<= (+ kidia (- 1)) _for_it_93_1))) (exists ((_for_it_92_0 Int)(_for_it_92_1 Int)(_for_it_95_0 Int)(_for_it_95_1 Int)) (and (not (= (+ _for_it_92_0 1) (+ _for_it_91 1))) (<= _for_it_95_0 (+ kfdia (- 1))) (<= (+ kidia (- 1)) _for_it_95_0) (= _for_it_92_0 _for_it_92_1) (= _for_it_95_0 _for_it_95_1) (= _for_it_91 (+ _for_it_91 1)) (<= 0 _for_it_92_0) (<= _for_it_92_0 4) (<= _for_it_95_1 (+ kfdia (- 1))) (<= (+ kidia (- 1)) _for_it_95_1) (not (= (+ _for_it_92_1 1) (+ _for_it_91 2))) (<= 0 _for_it_92_1) (<= _for_it_92_1 4)))))
      (<= ncldtop (+ klev (- 1)))
      (<= 0 _for_it_91)
      (<= (+ _for_it_91 1) 4)
    )
    false
  )
))

(check-sat)